param n := 3;
set S[1] := 1 2 3 4 5;
set S[2] := 1 2 3 4 5;
set S[3] := 1 2 3 4 5;

param A :=
[*,1,1,1]  1 29 2 50 3 74
[*,2,1,1]  1 59 2 89 3 74
[*,3,1,1]  1 9 2 76 3 58
[*,4,1,1]  1 66 2 10 3 6
[*,5,1,1]  1 40 2 27 3 24
[*,1,2,1]  1 95 2 77 3 29
[*,2,2,1]  1 87 2 68 3 19
[*,3,2,1]  1 30 2 88 3 50
[*,4,2,1]  1 10 2 36 3 100
[*,5,2,1]  1 57 2 98 3 36
[*,1,3,1]  1 97 2 32 3 57
[*,2,3,1]  1 18 2 9 3 25
[*,3,3,1]  1 20 2 62 3 78
[*,4,3,1]  1 67 2 16 3 17
[*,5,3,1]  1 48 2 95 3 69
[*,1,4,1]  1 55 2 74 3 86
[*,2,4,1]  1 10 2 93 3 97
[*,3,4,1]  1 29 2 96 3 35
[*,4,4,1]  1 83 2 30 3 77
[*,5,4,1]  1 42 2 34 3 14
[*,1,5,1]  1 32 2 53 3 39
[*,2,5,1]  1 47 2 74 3 8
[*,3,5,1]  1 20 2 97 3 94
[*,4,5,1]  1 24 2 50 3 82
[*,5,5,1]  1 5 2 21 3 8
[*,1,1,2]  1 27 2 54 3 3
[*,2,1,2]  1 35 2 63 3 77
[*,3,1,2]  1 4 2 33 3 71
[*,4,1,2]  1 47 2 38 3 98
[*,5,1,2]  1 29 2 37 3 19
[*,1,2,2]  1 63 2 22 3 23
[*,2,2,2]  1 5 2 64 3 63
[*,3,2,2]  1 46 2 38 3 100
[*,4,2,2]  1 4 2 75 3 6
[*,5,2,2]  1 45 2 19 3 92
[*,1,3,2]  1 83 2 60 3 46
[*,2,3,2]  1 88 2 100 3 6
[*,3,3,2]  1 55 2 58 3 54
[*,4,3,2]  1 90 2 88 3 9
[*,5,3,2]  1 81 2 78 3 16
[*,1,4,2]  1 85 2 35 3 65
[*,2,4,2]  1 37 2 21 3 31
[*,3,4,2]  1 3 2 34 3 96
[*,4,4,2]  1 67 2 15 3 70
[*,5,4,2]  1 68 2 14 3 27
[*,1,5,2]  1 21 2 83 3 3
[*,2,5,2]  1 42 2 79 3 78
[*,3,5,2]  1 87 2 75 3 83
[*,4,5,2]  1 60 2 3 3 44
[*,5,5,2]  1 93 2 62 3 40
[*,1,1,3]  1 73 2 95 3 35
[*,2,1,3]  1 26 2 53 3 10
[*,3,1,3]  1 2 2 99 3 97
[*,4,1,3]  1 83 2 72 3 33
[*,5,1,3]  1 52 2 40 3 51
[*,1,2,3]  1 41 2 64 3 32
[*,2,2,3]  1 21 2 95 3 23
[*,3,2,3]  1 43 2 5 3 24
[*,4,2,3]  1 4 2 3 3 44
[*,5,2,3]  1 81 2 55 3 100
[*,1,3,3]  1 22 2 16 3 65
[*,2,3,3]  1 25 2 87 3 71
[*,3,3,3]  1 3 2 53 3 100
[*,4,3,3]  1 73 2 55 3 12
[*,5,3,3]  1 39 2 15 3 75
[*,1,4,3]  1 26 2 34 3 24
[*,2,4,3]  1 9 2 89 3 6
[*,3,4,3]  1 32 2 1 3 69
[*,4,4,3]  1 17 2 29 3 36
[*,5,4,3]  1 67 2 86 3 14
[*,1,5,3]  1 92 2 32 3 66
[*,2,5,3]  1 46 2 99 3 73
[*,3,5,3]  1 10 2 2 3 15
[*,4,5,3]  1 31 2 59 3 12
[*,5,5,3]  1 17 2 25 3 1
[*,1,1,4]  1 23 2 22 3 72
[*,2,1,4]  1 45 2 15 3 96
[*,3,1,4]  1 31 2 54 3 12
[*,4,1,4]  1 24 2 56 3 47
[*,5,1,4]  1 34 2 37 3 25
[*,1,2,4]  1 53 2 74 3 87
[*,2,2,4]  1 57 2 74 3 54
[*,3,2,4]  1 60 2 84 3 57
[*,4,2,4]  1 35 2 94 3 70
[*,5,2,4]  1 9 2 93 3 60
[*,1,3,4]  1 93 2 40 3 8
[*,2,3,4]  1 11 2 58 3 37
[*,3,3,4]  1 94 2 80 3 35
[*,4,3,4]  1 65 2 58 3 33
[*,5,3,4]  1 45 2 49 3 70
[*,1,4,4]  1 50 2 33 3 11
[*,2,4,4]  1 52 2 6 3 44
[*,3,4,4]  1 6 2 5 3 57
[*,4,4,4]  1 82 2 100 3 28
[*,5,4,4]  1 60 2 3 3 68
[*,1,5,4]  1 56 2 18 3 25
[*,2,5,4]  1 90 2 4 3 83
[*,3,5,4]  1 13 2 23 3 91
[*,4,5,4]  1 81 2 77 3 25
[*,5,5,4]  1 33 2 32 3 25
[*,1,1,5]  1 63 2 80 3 87
[*,2,1,5]  1 5 2 57 3 64
[*,3,1,5]  1 56 2 47 3 93
[*,4,1,5]  1 8 2 47 3 93
[*,5,1,5]  1 94 2 60 3 77
[*,1,2,5]  1 30 2 74 3 78
[*,2,2,5]  1 31 2 76 3 25
[*,3,2,5]  1 87 2 66 3 67
[*,4,2,5]  1 36 2 43 3 73
[*,5,2,5]  1 22 2 28 3 85
[*,1,3,5]  1 86 2 57 3 11
[*,2,3,5]  1 52 2 33 3 74
[*,3,3,5]  1 72 2 71 3 6
[*,4,3,5]  1 13 2 64 3 22
[*,5,3,5]  1 68 2 95 3 62
[*,1,4,5]  1 40 2 13 3 12
[*,2,4,5]  1 34 2 73 3 15
[*,3,4,5]  1 80 2 79 3 66
[*,4,4,5]  1 61 2 19 3 11
[*,5,4,5]  1 71 2 82 3 30
[*,1,5,5]  1 30 2 17 3 37
[*,2,5,5]  1 28 2 7 3 78
[*,3,5,5]  1 87 2 87 3 7
[*,4,5,5]  1 32 2 44 3 15
[*,5,5,5]  1 89 2 5 3 16;

#param U :=  1 95.0 2 99.0 3 99.0;
#param pu :=  1 97.0 2 100.0 3 100.0;
#param pl :=  1 2.0 2 1.0 3 1.0;
